seed= 2052018 ;
N= 10 ;
M= 2 ;
F= 2 ;
K= 3 ;
T= 36 ;

p=[ 10 10 10 10 4 4 10 4 4 4 ];
r=[ 1 3 5 1 0 2 4 5 0 0 ];
d=[ 11 6 11 6 8 10 12 4 8 8 ];
s=[ 1 1 1 1 1 1 1 1 1 1 ];
w=[ 4 5 5 4 4 4 3 3 2 3 ];
f=[ 1 1 1 1 2 2 1 2 2 2 ];

e1=[ 10 10 10 10 10 10 10 10 10 10 10 10 10 10 10 10 10 10 8 8 8 8 8 8 8 8 8 8 8 8 8 8 8 8 8 8 ];
e2=[ 10 10 10 10 10 10 10 10 10 10 10 10 9 9 9 9 9 9 8 8 8 8 8 8 8 8 8 8 8 8 9 9 9 9 9 9 ];